Route #1: 48 34 40 27 14 2 24 
Route #2: 31 26 19 15 44 25 28 17 43 11 4 
Route #3: 42 32 47 10 39 13 23 
Route #4: 8 35 50 45 20 18 49 3 7 
Route #5: 22 46 37 6 9 21 12 38 5 36 
Route #6: 16 33 29 41 
Route #7: 30 
cost 775.68
